(declare-fun var0 () String)
(assert (str.in.re var0 (re.++ (re.* (re.union (str.to.re "d") (str.to.re "ee"))) (re.++ (re.union (re.union (str.to.re "a") (str.to.re "bb")) (re.* (str.to.re "cc"))) (re.++ (re.* (re.* (str.to.re "999"))) (re.++ (re.* (re.+ (str.to.re "88"))) (re.++ (re.+ (re.+ (str.to.re "7"))) (re.++ (re.* (re.+ (str.to.re "66"))) (re.++ (re.* (re.* (str.to.re "55"))) (re.++ (re.union (re.* (str.to.re "33")) (re.* (str.to.re "444"))) (re.++ (re.union (re.+ (str.to.re "1")) (re.+ (str.to.re "222"))) (re.* (re.+ (str.to.re "00"))))))))))))))
(assert (<= 326 (str.len var0)))
(check-sat)